*SPEF "ieee 1481-1999"
*DESIGN "decoder2to4"
*DATE "16:26:03 Tuesday August 11, 2026"
*VENDOR "The OpenROAD Project"
*PROGRAM "OpenROAD"
*VERSION "26Q1-951-g6975124cf2"
*DESIGN_FLOW "NAME_SCOPE LOCAL" "PIN_CAP NONE"
*DIVIDER /
*DELIMITER :
*BUS_DELIMITER []
*T_UNIT 1 NS
*C_UNIT 1 PF
*R_UNIT 1 OHM
*L_UNIT 1 HENRY

*NAME_MAP
*1 net1
*2 net2
*3 net4
*4 net5
*5 net6
*6 net7
*7 _0_
*8 _1_
*9 _2_
*10 _3_
*11 clk
*12 net3
*15 A
*16 B
*17 en
*18 Y[0]
*19 Y[1]
*20 Y[2]
*21 Y[3]
*22 clknet_0_clk
*23 clknet_1_0__leaf_clk
*24 clknet_1_1__leaf_clk
*25 Y\[0\]\$_SDFF_PN0_
*26 Y\[1\]\$_SDFF_PN0_
*27 Y\[2\]\$_SDFF_PN0_
*28 Y\[3\]\$_SDFF_PN0_
*29 _4_
*30 _5_
*31 _6_
*32 _7_
*33 TAP_TAPCELL_ROW_0_0
*34 TAP_TAPCELL_ROW_0_1
*35 TAP_TAPCELL_ROW_1_2
*36 TAP_TAPCELL_ROW_2_3
*37 TAP_TAPCELL_ROW_3_4
*38 TAP_TAPCELL_ROW_4_5
*39 TAP_TAPCELL_ROW_5_6
*40 TAP_TAPCELL_ROW_6_7
*41 TAP_TAPCELL_ROW_7_8
*42 TAP_TAPCELL_ROW_8_9
*43 TAP_TAPCELL_ROW_9_10
*44 TAP_TAPCELL_ROW_10_11
*45 TAP_TAPCELL_ROW_10_12
*46 input1
*47 input2
*48 input3
*49 output4
*50 output5
*51 output6
*52 output7
*53 clkbuf_0_clk
*54 clkbuf_1_0__f_clk
*55 clkbuf_1_1__f_clk
*56 FILLER_0_0
*57 FILLER_0_8
*58 FILLER_0_16
*59 FILLER_0_24
*60 FILLER_0_28
*61 FILLER_0_31
*62 FILLER_0_35
*63 FILLER_0_42
*64 FILLER_0_50
*65 FILLER_0_58
*66 FILLER_0_61
*67 FILLER_0_69
*68 FILLER_1_0
*69 FILLER_1_8
*70 FILLER_1_16
*71 FILLER_1_24
*72 FILLER_1_32
*73 FILLER_1_40
*74 FILLER_1_48
*75 FILLER_1_56
*76 FILLER_1_61
*77 FILLER_1_69
*78 FILLER_2_0
*79 FILLER_2_8
*80 FILLER_2_16
*81 FILLER_2_24
*82 FILLER_2_28
*83 FILLER_2_31
*84 FILLER_2_33
*85 FILLER_2_42
*86 FILLER_2_50
*87 FILLER_2_58
*88 FILLER_2_66
*89 FILLER_2_70
*90 FILLER_2_72
*91 FILLER_3_0
*92 FILLER_3_8
*93 FILLER_3_16
*94 FILLER_3_20
*95 FILLER_3_22
*96 FILLER_3_53
*97 FILLER_3_57
*98 FILLER_3_59
*99 FILLER_3_61
*100 FILLER_3_69
*101 FILLER_4_0
*102 FILLER_4_8
*103 FILLER_4_69
*104 FILLER_5_0
*105 FILLER_5_4
*106 FILLER_5_13
*107 FILLER_5_21
*108 FILLER_5_29
*109 FILLER_5_31
*110 FILLER_5_54
*111 FILLER_5_58
*112 FILLER_5_69
*113 FILLER_6_0
*114 FILLER_6_8
*115 FILLER_6_16
*116 FILLER_6_24
*117 FILLER_6_28
*118 FILLER_6_31
*119 FILLER_6_35
*120 FILLER_6_37
*121 FILLER_6_54
*122 FILLER_6_62
*123 FILLER_6_64
*124 FILLER_7_0
*125 FILLER_7_8
*126 FILLER_7_16
*127 FILLER_7_24
*128 FILLER_7_32
*129 FILLER_7_40
*130 FILLER_7_48
*131 FILLER_7_56
*132 FILLER_7_61
*133 FILLER_7_69
*134 FILLER_8_0
*135 FILLER_8_8
*136 FILLER_8_16
*137 FILLER_8_24
*138 FILLER_8_28
*139 FILLER_8_31
*140 FILLER_8_39
*141 FILLER_8_47
*142 FILLER_8_55
*143 FILLER_8_63
*144 FILLER_8_71
*145 FILLER_9_0
*146 FILLER_9_8
*147 FILLER_9_16
*148 FILLER_9_24
*149 FILLER_9_32
*150 FILLER_9_40
*151 FILLER_9_48
*152 FILLER_9_56
*153 FILLER_9_61
*154 FILLER_9_69
*155 FILLER_10_0
*156 FILLER_10_8
*157 FILLER_10_16
*158 FILLER_10_24
*159 FILLER_10_28
*160 FILLER_10_31
*161 FILLER_10_39
*162 FILLER_10_46
*163 FILLER_10_54
*164 FILLER_10_58
*165 FILLER_10_61
*166 FILLER_10_69

*PORTS
A I
B I
Y[0] O
Y[1] O
Y[2] O
Y[3] O
clk I
en I

*D_NET *1 0.00322761
*CONN
*I *32:B I *D sky130_fd_sc_hd__and3_2
*I *30:A_N I *D sky130_fd_sc_hd__and3b_1
*I *29:B I *D sky130_fd_sc_hd__and3b_1
*I *31:B I *D sky130_fd_sc_hd__nor3b_2
*I *46:X O *D sky130_fd_sc_hd__clkdlybuf4s50_1
*CAP
1 *32:B 4.94594e-05
2 *30:A_N 0
3 *29:B 0.00014639
4 *31:B 7.90046e-05
5 *46:X 0.000662953
6 *1:33 0.000381077
7 *1:25 0.000469636
8 *1:10 0.000927446
9 *29:B *30:C 4.11567e-05
10 *31:B *32:A 0.000115157
11 *32:B *31:C_N 7.92757e-06
12 *1:25 *31:C_N 4.15559e-05
13 *1:25 *32:A 1.65351e-05
14 *1:33 *30:C 0.000114584
15 *1:33 *31:C_N 3.90219e-05
16 *1:33 *12:18 4.70559e-05
17 *1:33 *12:29 7.80439e-05
18 *1:33 *22:15 1.06064e-05
*RES
1 *46:X *1:10 23.6537 
2 *1:10 *31:B 16.4439 
3 *1:10 *1:25 7.44181 
4 *1:25 *1:33 15.0168 
5 *1:33 *29:B 12.0704 
6 *1:33 *30:A_N 9.24915 
7 *1:25 *32:B 9.97254 
*END

*D_NET *2 0.00233264
*CONN
*I *31:A I *D sky130_fd_sc_hd__nor3b_2
*I *32:A I *D sky130_fd_sc_hd__and3_2
*I *30:C I *D sky130_fd_sc_hd__and3b_1
*I *29:A_N I *D sky130_fd_sc_hd__and3b_1
*I *47:X O *D sky130_fd_sc_hd__clkdlybuf4s50_1
*CAP
1 *31:A 0
2 *32:A 0.0002049
3 *30:C 0.000178712
4 *29:A_N 0
5 *47:X 3.18108e-05
6 *2:14 0.000412286
7 *2:6 0.000470284
8 *30:C *27:D 3.24899e-05
9 *30:C *29:C 0.000314044
10 *30:C *12:12 4.30017e-06
11 *30:C *12:18 1.43983e-05
12 *32:A *25:D 0.000264605
13 *32:A *31:C_N 0.000117376
14 *29:B *30:C 4.11567e-05
15 *31:B *32:A 0.000115157
16 *1:25 *32:A 1.65351e-05
17 *1:33 *30:C 0.000114584
*RES
1 *47:X *2:6 9.97254 
2 *2:6 *2:14 13.9104 
3 *2:14 *29:A_N 9.24915 
4 *2:14 *30:C 16.0973 
5 *2:6 *32:A 16.0973 
6 *2:6 *31:A 9.24915 
*END

*D_NET *3 0.000132898
*CONN
*I *49:A I *D sky130_fd_sc_hd__clkdlybuf4s50_1
*I *25:Q O *D sky130_fd_sc_hd__dfxtp_1
*CAP
1 *49:A 6.64492e-05
2 *25:Q 6.64492e-05
*RES
1 *25:Q *49:A 20.2103 
*END

*D_NET *4 0.000645151
*CONN
*I *50:A I *D sky130_fd_sc_hd__clkdlybuf4s50_1
*I *26:Q O *D sky130_fd_sc_hd__dfxtp_1
*CAP
1 *50:A 0.000322575
2 *26:Q 0.000322575
*RES
1 *26:Q *50:A 26.311 
*END

*D_NET *5 0.000951708
*CONN
*I *51:A I *D sky130_fd_sc_hd__clkdlybuf4s50_1
*I *27:Q O *D sky130_fd_sc_hd__dfxtp_1
*CAP
1 *51:A 0.000475854
2 *27:Q 0.000475854
*RES
1 *27:Q *51:A 34.9058 
*END

*D_NET *6 0.000464241
*CONN
*I *52:A I *D sky130_fd_sc_hd__clkdlybuf4s50_1
*I *28:Q O *D sky130_fd_sc_hd__dfxtp_1
*CAP
1 *52:A 0.000232121
2 *28:Q 0.000232121
*RES
1 *28:Q *52:A 24.0926 
*END

*D_NET *7 0.00107706
*CONN
*I *27:D I *D sky130_fd_sc_hd__dfxtp_1
*I *29:X O *D sky130_fd_sc_hd__and3b_1
*CAP
1 *27:D 0.000293154
2 *29:X 0.000293154
3 *27:D *26:D 0.000204254
4 *27:D *29:C 0.00021217
5 *27:D *12:12 4.18345e-05
6 *30:C *27:D 3.24899e-05
*RES
1 *29:X *27:D 25.3284 
*END

*D_NET *8 0.00135559
*CONN
*I *26:D I *D sky130_fd_sc_hd__dfxtp_1
*I *30:X O *D sky130_fd_sc_hd__and3b_1
*CAP
1 *26:D 0.000518905
2 *30:X 0.000518905
3 *26:D *25:CLK 0
4 *26:D *26:CLK 1.87611e-05
5 *26:D *28:D 6.1501e-05
6 *26:D *28:CLK 2.98609e-05
7 *26:D *12:12 3.40242e-06
8 *27:D *26:D 0.000204254
*RES
1 *30:X *26:D 39.1392 
*END

*D_NET *9 0.00122253
*CONN
*I *25:D I *D sky130_fd_sc_hd__dfxtp_1
*I *31:Y O *D sky130_fd_sc_hd__nor3b_2
*CAP
1 *25:D 0.000424463
2 *31:Y 0.000424463
3 *25:D *28:D 3.43959e-05
4 *25:D *31:C_N 7.45998e-05
5 *32:A *25:D 0.000264605
*RES
1 *31:Y *25:D 26.9922 
*END

*D_NET *10 0.000799735
*CONN
*I *28:D I *D sky130_fd_sc_hd__dfxtp_1
*I *32:X O *D sky130_fd_sc_hd__and3_2
*CAP
1 *28:D 0.00027931
2 *32:X 0.00027931
3 *28:D *28:CLK 0.000100316
4 *28:D *22:15 3.30938e-05
5 *28:D *22:33 1.18084e-05
6 *25:D *28:D 3.43959e-05
7 *26:D *28:D 6.1501e-05
*RES
1 *32:X *28:D 33.7054 
*END

*D_NET *11 0.00225745
*CONN
*P clk I
*I *53:A I *D sky130_fd_sc_hd__clkbuf_4
*CAP
1 clk 0.000963683
2 *53:A 0
3 *11:10 0.000963683
4 *11:10 *46:A 0.000177741
5 *11:10 *47:A 0.000144595
6 *11:10 *22:33 7.75178e-06
*RES
1 clk *11:10 6.48774 
2 *11:10 *53:A 13.7491 
*END

*D_NET *12 0.00241044
*CONN
*I *30:B I *D sky130_fd_sc_hd__and3b_1
*I *31:C_N I *D sky130_fd_sc_hd__nor3b_2
*I *32:C I *D sky130_fd_sc_hd__and3_2
*I *29:C I *D sky130_fd_sc_hd__and3b_1
*I *48:X O *D sky130_fd_sc_hd__clkdlybuf4s50_1
*CAP
1 *30:B 0
2 *31:C_N 8.18786e-05
3 *32:C 0
4 *29:C 6.83737e-05
5 *48:X 0.000334015
6 *12:29 0.000138832
7 *12:18 0.000240396
8 *12:12 0.000449085
9 *31:C_N *22:15 2.1032e-05
10 *12:12 *23:10 0
11 *12:18 *22:15 4.41474e-05
12 *12:29 *22:15 3.69482e-05
13 *25:D *31:C_N 7.45998e-05
14 *26:D *12:12 3.40242e-06
15 *27:D *29:C 0.00021217
16 *27:D *12:12 4.18345e-05
17 *30:C *29:C 0.000314044
18 *30:C *12:12 4.30017e-06
19 *30:C *12:18 1.43983e-05
20 *32:A *31:C_N 0.000117376
21 *32:B *31:C_N 7.92757e-06
22 *1:25 *31:C_N 4.15559e-05
23 *1:33 *31:C_N 3.90219e-05
24 *1:33 *12:18 4.70559e-05
25 *1:33 *12:29 7.80439e-05
*RES
1 *48:X *12:12 23.7169 
2 *12:12 *12:18 7.05539 
3 *12:18 *29:C 17.2456 
4 *12:18 *12:29 1.832 
5 *12:29 *32:C 13.7491 
6 *12:29 *31:C_N 17.1378 
7 *12:12 *30:B 9.24915 
*END

*D_NET *15 0.000661813
*CONN
*P A I
*I *46:A I *D sky130_fd_sc_hd__clkdlybuf4s50_1
*CAP
1 A 0.000242036
2 *46:A 0.000242036
3 *11:10 *46:A 0.000177741
*RES
1 A *46:A 19.7562 
*END

*D_NET *16 0.00102583
*CONN
*P B I
*I *47:A I *D sky130_fd_sc_hd__clkdlybuf4s50_1
*CAP
1 B 0.00044062
2 *47:A 0.00044062
3 *11:10 *47:A 0.000144595
*RES
1 B *47:A 24.7006 
*END

*D_NET *17 0.00114007
*CONN
*P en I
*I *48:A I *D sky130_fd_sc_hd__clkdlybuf4s50_1
*CAP
1 en 0.000477441
2 *48:A 0.000477441
3 *48:A *22:15 0.000185191
*RES
1 en *48:A 27.0278 
*END

*D_NET *18 0.000840302
*CONN
*P Y[0] O
*I *49:X O *D sky130_fd_sc_hd__clkdlybuf4s50_1
*CAP
1 Y[0] 0.000366577
2 *49:X 0.000366577
3 Y[0] Y[1] 7.03864e-05
4 Y[0] Y[3] 3.67607e-05
*RES
1 *49:X Y[0] 18.6331 
*END

*D_NET *19 0.000614406
*CONN
*P Y[1] O
*I *50:X O *D sky130_fd_sc_hd__clkdlybuf4s50_1
*CAP
1 Y[1] 0.000145627
2 *50:X 0.000145627
3 Y[1] Y[2] 0.000191155
4 Y[1] Y[3] 6.16109e-05
5 Y[0] Y[1] 7.03864e-05
*RES
1 *50:X Y[1] 21.0372 
*END

*D_NET *20 0.000995494
*CONN
*P Y[2] O
*I *51:X O *D sky130_fd_sc_hd__clkdlybuf4s50_1
*CAP
1 Y[2] 0.000381533
2 *51:X 0.000381533
3 Y[2] Y[3] 4.12725e-05
4 Y[1] Y[2] 0.000191155
*RES
1 *51:X Y[2] 24.733 
*END

*D_NET *21 0.000419861
*CONN
*P Y[3] O
*I *52:X O *D sky130_fd_sc_hd__clkdlybuf4s50_1
*CAP
1 Y[3] 0.000140108
2 *52:X 0.000140108
3 Y[0] Y[3] 3.67607e-05
4 Y[1] Y[3] 6.16109e-05
5 Y[2] Y[3] 4.12725e-05
*RES
1 *52:X Y[3] 18.0212 
*END

*D_NET *22 0.00347044
*CONN
*I *55:A I *D sky130_fd_sc_hd__clkbuf_4
*I *54:A I *D sky130_fd_sc_hd__clkbuf_4
*I *53:X O *D sky130_fd_sc_hd__clkbuf_4
*CAP
1 *55:A 9.15105e-05
2 *54:A 5.69221e-05
3 *53:X 0
4 *22:33 0.000791769
5 *22:15 0.000609755
6 *22:6 0.00125309
7 *54:A *23:10 4.30017e-06
8 *22:15 *25:CLK 7.51222e-05
9 *22:15 *23:10 0.000237384
10 *22:33 *24:8 0
11 *28:D *22:15 3.30938e-05
12 *28:D *22:33 1.18084e-05
13 *31:C_N *22:15 2.1032e-05
14 *48:A *22:15 0.000185191
15 *1:33 *22:15 1.06064e-05
16 *11:10 *22:33 7.75178e-06
17 *12:18 *22:15 4.41474e-05
18 *12:29 *22:15 3.69482e-05
*RES
1 *53:X *22:6 13.7491 
2 *22:6 *22:15 17.6849 
3 *22:15 *54:A 15.0271 
4 *22:6 *22:33 21.8665 
5 *22:33 *55:A 11.3591 
*END

*D_NET *23 0.00123407
*CONN
*I *25:CLK I *D sky130_fd_sc_hd__dfxtp_1
*I *27:CLK I *D sky130_fd_sc_hd__dfxtp_1
*I *54:X O *D sky130_fd_sc_hd__clkbuf_4
*CAP
1 *25:CLK 0.000128405
2 *27:CLK 0
3 *54:X 0.000330228
4 *23:10 0.000458633
5 *26:D *25:CLK 0
6 *54:A *23:10 4.30017e-06
7 *12:12 *23:10 0
8 *22:15 *25:CLK 7.51222e-05
9 *22:15 *23:10 0.000237384
*RES
1 *54:X *23:10 23.3638 
2 *23:10 *27:CLK 13.7491 
3 *23:10 *25:CLK 17.2421 
*END

*D_NET *24 0.00202206
*CONN
*I *26:CLK I *D sky130_fd_sc_hd__dfxtp_1
*I *28:CLK I *D sky130_fd_sc_hd__dfxtp_1
*I *55:X O *D sky130_fd_sc_hd__clkbuf_4
*CAP
1 *26:CLK 0.000151706
2 *28:CLK 0.000283645
3 *55:X 0.000501208
4 *24:8 0.00093656
5 *26:D *26:CLK 1.87611e-05
6 *26:D *28:CLK 2.98609e-05
7 *28:D *28:CLK 0.000100316
8 *22:33 *24:8 0
*RES
1 *55:X *24:8 26.3777 
2 *24:8 *28:CLK 20.4868 
3 *24:8 *26:CLK 17.2456 
*END
